p tw 128 21121 2 
1 66 
1 67 
1 69 
1 71 
1 74 
1 75 
1 77 
1 80 
1 81 
1 83 
1 85 
1 87 
1 89 
1 91 
1 94 
1 95 
1 97 
1 99 
1 101 
1 103 
1 105 
1 108 
1 110 
1 111 
1 114 
1 116 
1 117 
1 119 
1 121 
1 123 
1 125 
1 127 
2 65 
2 68 
2 70 
2 72 
2 73 
2 76 
2 78 
2 79 
2 82 
2 84 
2 86 
2 88 
2 90 
2 92 
2 93 
2 96 
2 98 
2 100 
2 102 
2 104 
2 106 
2 107 
2 109 
2 112 
2 113 
2 115 
2 118 
2 120 
2 122 
2 124 
2 126 
2 128 
3 4 
3 65 
3 67 
3 69 
3 71 
3 73 
3 76 
3 77 
3 80 
3 82 
3 83 
3 86 
3 87 
3 89 
3 92 
3 93 
3 96 
3 98 
3 100 
3 102 
3 104 
3 106 
3 108 
3 110 
3 111 
3 114 
3 115 
3 117 
3 120 
3 121 
3 123 
3 125 
3 128 
4 66 
4 68 
4 70 
4 72 
4 74 
4 75 
4 78 
4 79 
4 81 
4 84 
4 85 
4 88 
4 90 
4 91 
4 94 
4 95 
4 97 
4 99 
4 101 
4 103 
4 105 
4 107 
4 109 
4 112 
4 113 
4 116 
4 118 
4 119 
4 122 
4 124 
4 126 
4 127 
5 6 
5 66 
5 67 
5 70 
5 72 
5 74 
5 76 
5 78 
5 80 
5 81 
5 84 
5 86 
5 88 
5 89 
5 92 
5 94 
5 96 
5 97 
5 99 
5 102 
5 104 
5 105 
5 108 
5 110 
5 112 
5 114 
5 116 
5 117 
5 120 
5 121 
5 124 
5 126 
5 128 
6 65 
6 68 
6 69 
6 71 
6 73 
6 75 
6 77 
6 79 
6 82 
6 83 
6 85 
6 87 
6 90 
6 91 
6 93 
6 95 
6 98 
6 100 
6 101 
6 103 
6 106 
6 107 
6 109 
6 111 
6 113 
6 115 
6 118 
6 119 
6 122 
6 123 
6 125 
6 127 
7 8 
7 65 
7 68 
7 70 
7 71 
7 73 
7 75 
7 78 
7 80 
7 81 
7 83 
7 85 
7 88 
7 90 
7 92 
7 93 
7 95 
7 98 
7 99 
7 102 
7 104 
7 105 
7 108 
7 110 
7 111 
7 114 
7 115 
7 118 
7 119 
7 121 
7 124 
7 126 
7 127 
8 66 
8 67 
8 69 
8 72 
8 74 
8 76 
8 77 
8 79 
8 82 
8 84 
8 86 
8 87 
8 89 
8 91 
8 94 
8 96 
8 97 
8 100 
8 101 
8 103 
8 106 
8 107 
8 109 
8 112 
8 113 
8 116 
8 117 
8 120 
8 122 
8 123 
8 125 
8 128 
9 10 
9 66 
9 68 
9 70 
9 71 
9 73 
9 75 
9 78 
9 80 
9 82 
9 83 
9 85 
9 87 
9 89 
9 91 
9 94 
9 96 
9 97 
9 99 
9 101 
9 104 
9 106 
9 108 
9 109 
9 112 
9 113 
9 115 
9 118 
9 120 
9 121 
9 123 
9 126 
9 128 
10 65 
10 67 
10 69 
10 72 
10 74 
10 76 
10 77 
10 79 
10 81 
10 84 
10 86 
10 88 
10 90 
10 92 
10 93 
10 95 
10 98 
10 100 
10 102 
10 103 
10 105 
10 107 
10 110 
10 111 
10 114 
10 116 
10 117 
10 119 
10 122 
10 124 
10 125 
10 127 
11 12 
11 65 
11 67 
11 70 
11 71 
11 73 
11 75 
11 77 
11 80 
11 82 
11 84 
11 85 
11 88 
11 90 
11 92 
11 94 
11 96 
11 97 
11 99 
11 101 
11 104 
11 106 
11 107 
11 110 
11 111 
11 113 
11 116 
11 117 
11 119 
11 122 
11 124 
11 125 
11 128 
12 66 
12 68 
12 69 
12 72 
12 74 
12 76 
12 78 
12 79 
12 81 
12 83 
12 86 
12 87 
12 89 
12 91 
12 93 
12 95 
12 98 
12 100 
12 102 
12 103 
12 105 
12 108 
12 109 
12 112 
12 114 
12 115 
12 118 
12 120 
12 121 
12 123 
12 126 
12 127 
13 14 
13 65 
13 67 
13 70 
13 72 
13 74 
13 75 
13 77 
13 80 
13 82 
13 83 
13 86 
13 88 
13 90 
13 91 
13 94 
13 95 
13 97 
13 100 
13 102 
13 104 
13 105 
13 107 
13 109 
13 112 
13 114 
13 115 
13 118 
13 119 
13 121 
13 123 
13 125 
13 128 
14 66 
14 68 
14 69 
14 71 
14 73 
14 76 
14 78 
14 79 
14 81 
14 84 
14 85 
14 87 
14 89 
14 92 
14 93 
14 96 
14 98 
14 99 
14 101 
14 103 
14 106 
14 108 
14 110 
14 111 
14 113 
14 116 
14 117 
14 120 
14 122 
14 124 
14 126 
14 127 
15 16 
15 65 
15 68 
15 70 
15 71 
15 73 
15 76 
15 77 
15 79 
15 81 
15 84 
15 86 
15 88 
15 89 
15 92 
15 94 
15 95 
15 98 
15 99 
15 101 
15 103 
15 106 
15 108 
15 109 
15 112 
15 114 
15 116 
15 118 
15 119 
15 121 
15 123 
15 125 
15 128 
16 66 
16 67 
16 69 
16 72 
16 74 
16 75 
16 78 
16 80 
16 82 
16 83 
16 85 
16 87 
16 90 
16 91 
16 93 
16 96 
16 97 
16 100 
16 102 
16 104 
16 105 
16 107 
16 110 
16 111 
16 113 
16 115 
16 117 
16 120 
16 122 
16 124 
16 126 
16 127 
17 18 
17 66 
17 68 
17 70 
17 72 
17 73 
17 76 
17 77 
17 80 
17 81 
17 83 
17 86 
17 87 
17 90 
17 92 
17 93 
17 96 
17 97 
17 99 
17 101 
17 104 
17 105 
17 107 
17 109 
17 111 
17 114 
17 116 
17 118 
17 120 
17 122 
17 123 
17 125 
17 127 
18 65 
18 67 
18 69 
18 71 
18 74 
18 75 
18 78 
18 79 
18 82 
18 84 
18 85 
18 88 
18 89 
18 91 
18 94 
18 95 
18 98 
18 100 
18 102 
18 103 
18 106 
18 108 
18 110 
18 112 
18 113 
18 115 
18 117 
18 119 
18 121 
18 124 
18 126 
18 128 
19 20 
19 65 
19 67 
19 69 
19 71 
19 74 
19 75 
19 78 
19 80 
19 81 
19 83 
19 86 
19 87 
19 90 
19 92 
19 93 
19 95 
19 97 
19 99 
19 102 
19 103 
19 106 
19 108 
19 109 
19 112 
19 113 
19 116 
19 118 
19 120 
19 122 
19 124 
19 125 
19 128 
20 66 
20 68 
20 70 
20 72 
20 73 
20 76 
20 77 
20 79 
20 82 
20 84 
20 85 
20 88 
20 89 
20 91 
20 94 
20 96 
20 98 
20 100 
20 101 
20 104 
20 105 
20 107 
20 110 
20 111 
20 114 
20 115 
20 117 
20 119 
20 121 
20 123 
20 126 
20 127 
21 22 
21 65 
21 68 
21 70 
21 72 
21 74 
21 75 
21 77 
21 80 
21 82 
21 83 
21 85 
21 88 
21 89 
21 92 
21 93 
21 96 
21 98 
21 100 
21 101 
21 103 
21 105 
21 108 
21 109 
21 112 
21 113 
21 116 
21 117 
21 120 
21 121 
21 124 
21 125 
21 127 
22 66 
22 67 
22 69 
22 71 
22 73 
22 76 
22 78 
22 79 
22 81 
22 84 
22 86 
22 87 
22 90 
22 91 
22 94 
22 95 
22 97 
22 99 
22 102 
22 104 
22 106 
22 107 
22 110 
22 111 
22 114 
22 115 
22 118 
22 119 
22 122 
22 123 
22 126 
22 128 
23 24 
23 66 
23 68 
23 69 
23 72 
23 74 
23 75 
23 77 
23 80 
23 81 
23 83 
23 86 
23 88 
23 89 
23 92 
23 93 
23 95 
23 98 
23 99 
23 101 
23 104 
23 106 
23 107 
23 110 
23 112 
23 113 
23 115 
23 117 
23 119 
23 122 
23 123 
23 126 
23 128 
24 65 
24 67 
24 70 
24 71 
24 73 
24 76 
24 78 
24 79 
24 82 
24 84 
24 85 
24 87 
24 90 
24 91 
24 94 
24 96 
24 97 
24 100 
24 102 
24 103 
24 105 
24 108 
24 109 
24 111 
24 114 
24 116 
24 118 
24 120 
24 121 
24 124 
24 125 
24 127 
25 26 
25 65 
25 68 
25 69 
25 71 
25 74 
25 76 
25 77 
25 80 
25 81 
25 84 
25 85 
25 88 
25 89 
25 91 
25 93 
25 96 
25 97 
25 100 
25 102 
25 104 
25 105 
25 108 
25 109 
25 111 
25 113 
25 116 
25 118 
25 119 
25 122 
25 123 
25 126 
25 128 
26 66 
26 67 
26 70 
26 72 
26 73 
26 75 
26 78 
26 79 
26 82 
26 83 
26 86 
26 87 
26 90 
26 92 
26 94 
26 95 
26 98 
26 99 
26 101 
26 103 
26 106 
26 107 
26 110 
26 112 
26 114 
26 115 
26 117 
26 120 
26 121 
26 124 
26 125 
26 127 
27 28 
27 66 
27 68 
27 69 
27 71 
27 73 
27 75 
27 77 
27 80 
27 82 
27 84 
27 86 
27 87 
27 90 
27 91 
27 93 
27 96 
27 98 
27 99 
27 102 
27 103 
27 105 
27 107 
27 109 
27 112 
27 114 
27 116 
27 117 
27 119 
27 121 
27 124 
27 126 
27 128 
28 65 
28 67 
28 70 
28 72 
28 74 
28 76 
28 78 
28 79 
28 81 
28 83 
28 85 
28 88 
28 89 
28 92 
28 94 
28 95 
28 97 
28 100 
28 101 
28 104 
28 106 
28 108 
28 110 
28 111 
28 113 
28 115 
28 118 
28 120 
28 122 
28 123 
28 125 
28 127 
29 30 
29 65 
29 68 
29 69 
29 71 
29 74 
29 75 
29 78 
29 80 
29 81 
29 84 
29 86 
29 88 
29 90 
29 92 
29 94 
29 96 
29 97 
29 100 
29 101 
29 103 
29 106 
29 107 
29 109 
29 111 
29 114 
29 115 
29 117 
29 120 
29 121 
29 123 
29 126 
29 127 
30 66 
30 67 
30 70 
30 72 
30 73 
30 76 
30 77 
30 79 
30 82 
30 83 
30 85 
30 87 
30 89 
30 91 
30 93 
30 95 
30 98 
30 99 
30 102 
30 104 
30 105 
30 108 
30 110 
30 112 
30 113 
30 116 
30 118 
30 119 
30 122 
30 124 
30 125 
30 128 
31 32 
31 66 
31 68 
31 69 
31 71 
31 74 
31 76 
31 78 
31 80 
31 82 
31 83 
31 86 
31 88 
31 90 
31 91 
31 94 
31 96 
31 98 
31 100 
31 101 
31 104 
31 106 
31 108 
31 110 
31 112 
31 114 
31 116 
31 118 
31 119 
31 122 
31 124 
31 125 
31 127 
32 65 
32 67 
32 70 
32 72 
32 73 
32 75 
32 77 
32 79 
32 81 
32 84 
32 85 
32 87 
32 89 
32 92 
32 93 
32 95 
32 97 
32 99 
32 102 
32 103 
32 105 
32 107 
32 109 
32 111 
32 113 
32 115 
32 117 
32 120 
32 121 
32 123 
32 126 
32 128 
33 34 
33 66 
33 68 
33 70 
33 72 
33 73 
33 75 
33 78 
33 79 
33 81 
33 83 
33 86 
33 88 
33 90 
33 91 
33 93 
33 96 
33 97 
33 100 
33 102 
33 103 
33 106 
33 108 
33 110 
33 111 
33 113 
33 116 
33 117 
33 119 
33 121 
33 123 
33 125 
33 128 
34 65 
34 67 
34 69 
34 71 
34 74 
34 76 
34 77 
34 80 
34 82 
34 84 
34 85 
34 87 
34 89 
34 92 
34 94 
34 95 
34 98 
34 99 
34 101 
34 104 
34 105 
34 107 
34 109 
34 112 
34 114 
34 115 
34 118 
34 120 
34 122 
34 124 
34 126 
34 127 
35 36 
35 66 
35 67 
35 70 
35 71 
35 73 
35 76 
35 78 
35 80 
35 82 
35 83 
35 85 
35 88 
35 89 
35 92 
35 93 
35 95 
35 97 
35 100 
35 102 
35 103 
35 106 
35 107 
35 109 
35 112 
35 114 
35 116 
35 117 
35 119 
35 122 
35 123 
35 126 
35 127 
36 65 
36 68 
36 69 
36 72 
36 74 
36 75 
36 77 
36 79 
36 81 
36 84 
36 86 
36 87 
36 90 
36 91 
36 94 
36 96 
36 98 
36 99 
36 101 
36 104 
36 105 
36 108 
36 110 
36 111 
36 113 
36 115 
36 118 
36 120 
36 121 
36 124 
36 125 
36 128 
37 38 
37 66 
37 68 
37 69 
37 72 
37 73 
37 76 
37 77 
37 80 
37 81 
37 84 
37 85 
37 87 
37 90 
37 92 
37 94 
37 95 
37 97 
37 100 
37 102 
37 104 
37 106 
37 108 
37 109 
37 112 
37 113 
37 115 
37 117 
37 119 
37 121 
37 124 
37 125 
37 127 
38 65 
38 67 
38 70 
38 71 
38 74 
38 75 
38 78 
38 79 
38 82 
38 83 
38 86 
38 88 
38 89 
38 91 
38 93 
38 96 
38 98 
38 99 
38 101 
38 103 
38 105 
38 107 
38 110 
38 111 
38 114 
38 116 
38 118 
38 120 
38 122 
38 123 
38 126 
38 128 
39 40 
39 65 
39 68 
39 69 
39 72 
39 73 
39 75 
39 78 
39 79 
39 82 
39 83 
39 86 
39 87 
39 89 
39 92 
39 94 
39 95 
39 97 
39 100 
39 101 
39 104 
39 105 
39 108 
39 109 
39 111 
39 114 
39 116 
39 117 
39 119 
39 122 
39 124 
39 126 
39 128 
40 66 
40 67 
40 70 
40 71 
40 74 
40 76 
40 77 
40 80 
40 81 
40 84 
40 85 
40 88 
40 90 
40 91 
40 93 
40 96 
40 98 
40 99 
40 102 
40 103 
40 106 
40 107 
40 110 
40 112 
40 113 
40 115 
40 118 
40 120 
40 121 
40 123 
40 125 
40 127 
41 42 
41 66 
41 68 
41 70 
41 72 
41 74 
41 75 
41 77 
41 80 
41 82 
41 84 
41 85 
41 87 
41 90 
41 92 
41 94 
41 95 
41 98 
41 100 
41 102 
41 103 
41 106 
41 108 
41 110 
41 111 
41 114 
41 116 
41 118 
41 120 
41 122 
41 123 
41 126 
41 128 
42 65 
42 67 
42 69 
42 71 
42 73 
42 76 
42 78 
42 79 
42 81 
42 83 
42 86 
42 88 
42 89 
42 91 
42 93 
42 96 
42 97 
42 99 
42 101 
42 104 
42 105 
42 107 
42 109 
42 112 
42 113 
42 115 
42 117 
42 119 
42 121 
42 124 
42 125 
42 127 
43 44 
43 66 
43 67 
43 69 
43 72 
43 74 
43 76 
43 77 
43 79 
43 82 
43 83 
43 85 
43 88 
43 90 
43 92 
43 93 
43 96 
43 97 
43 99 
43 101 
43 103 
43 106 
43 108 
43 109 
43 111 
43 114 
43 115 
43 118 
43 119 
43 121 
43 124 
43 126 
43 128 
44 65 
44 68 
44 70 
44 71 
44 73 
44 75 
44 78 
44 80 
44 81 
44 84 
44 86 
44 87 
44 89 
44 91 
44 94 
44 95 
44 98 
44 100 
44 102 
44 104 
44 105 
44 107 
44 110 
44 112 
44 113 
44 116 
44 117 
44 120 
44 122 
44 123 
44 125 
44 127 
45 46 
45 66 
45 67 
45 70 
45 71 
45 74 
45 75 
45 78 
45 79 
45 81 
45 84 
45 85 
45 87 
45 90 
45 92 
45 93 
45 96 
45 98 
45 100 
45 101 
45 104 
45 105 
45 108 
45 109 
45 112 
45 114 
45 115 
45 117 
45 119 
45 122 
45 123 
45 125 
45 128 
46 65 
46 68 
46 69 
46 72 
46 73 
46 76 
46 77 
46 80 
46 82 
46 83 
46 86 
46 88 
46 89 
46 91 
46 94 
46 95 
46 97 
46 99 
46 102 
46 103 
46 106 
46 107 
46 110 
46 111 
46 113 
46 116 
46 118 
46 120 
46 121 
46 124 
46 126 
46 127 
47 48 
47 65 
47 68 
47 70 
47 71 
47 74 
47 76 
47 77 
47 79 
47 82 
47 83 
47 86 
47 87 
47 90 
47 92 
47 94 
47 96 
47 97 
47 99 
47 102 
47 103 
47 105 
47 108 
47 110 
47 112 
47 113 
47 115 
47 117 
47 119 
47 122 
47 123 
47 126 
47 127 
48 66 
48 67 
48 69 
48 72 
48 73 
48 75 
48 78 
48 80 
48 81 
48 84 
48 85 
48 88 
48 89 
48 91 
48 93 
48 95 
48 98 
48 100 
48 101 
48 104 
48 106 
48 107 
48 109 
48 111 
48 114 
48 116 
48 118 
48 120 
48 121 
48 124 
48 125 
48 128 
49 50 
49 66 
49 68 
49 70 
49 71 
49 74 
49 75 
49 77 
49 79 
49 82 
49 84 
49 86 
49 88 
49 89 
49 91 
49 93 
49 95 
49 97 
49 99 
49 102 
49 104 
49 106 
49 108 
49 109 
49 111 
49 114 
49 115 
49 117 
49 120 
49 122 
49 124 
49 125 
49 127 
50 65 
50 67 
50 69 
50 72 
50 73 
50 76 
50 78 
50 80 
50 81 
50 83 
50 85 
50 87 
50 90 
50 92 
50 94 
50 96 
50 98 
50 100 
50 101 
50 103 
50 105 
50 107 
50 110 
50 112 
50 113 
50 116 
50 118 
50 119 
50 121 
50 123 
50 126 
50 128 
51 52 
51 65 
51 68 
51 70 
51 71 
51 74 
51 76 
51 77 
51 79 
51 81 
51 83 
51 85 
51 87 
51 90 
51 91 
51 93 
51 95 
51 97 
51 100 
51 101 
51 104 
51 106 
51 107 
51 110 
51 112 
51 114 
51 116 
51 117 
51 120 
51 121 
51 124 
51 126 
51 128 
52 66 
52 67 
52 69 
52 72 
52 73 
52 75 
52 78 
52 80 
52 82 
52 84 
52 86 
52 88 
52 89 
52 92 
52 94 
52 96 
52 98 
52 99 
52 102 
52 103 
52 105 
52 108 
52 109 
52 111 
52 113 
52 115 
52 118 
52 119 
52 122 
52 123 
52 125 
52 127 
53 54 
53 65 
53 67 
53 69 
53 72 
53 73 
53 75 
53 77 
53 79 
53 81 
53 83 
53 85 
53 88 
53 90 
53 91 
53 94 
53 96 
53 98 
53 99 
53 102 
53 104 
53 106 
53 108 
53 109 
53 112 
53 114 
53 116 
53 117 
53 120 
53 122 
53 123 
53 126 
53 127 
54 66 
54 68 
54 70 
54 71 
54 74 
54 76 
54 78 
54 80 
54 82 
54 84 
54 86 
54 87 
54 89 
54 92 
54 93 
54 95 
54 97 
54 100 
54 101 
54 103 
54 105 
54 107 
54 110 
54 111 
54 113 
54 115 
54 118 
54 119 
54 121 
54 124 
54 125 
54 128 
55 56 
55 65 
55 68 
55 69 
55 72 
55 73 
55 76 
55 78 
55 80 
55 82 
55 84 
55 85 
55 88 
55 90 
55 91 
55 93 
55 95 
55 97 
55 99 
55 101 
55 103 
55 105 
55 108 
55 110 
55 112 
55 114 
55 115 
55 117 
55 120 
55 122 
55 123 
55 125 
55 128 
56 66 
56 67 
56 70 
56 71 
56 74 
56 75 
56 77 
56 79 
56 81 
56 83 
56 86 
56 87 
56 89 
56 92 
56 94 
56 96 
56 98 
56 100 
56 102 
56 104 
56 106 
56 107 
56 109 
56 111 
56 113 
56 116 
56 118 
56 119 
56 121 
56 124 
56 126 
56 127 
57 58 
57 66 
57 68 
57 69 
57 71 
57 73 
57 75 
57 77 
57 79 
57 81 
57 83 
57 85 
57 88 
57 89 
57 92 
57 94 
57 96 
57 97 
57 100 
57 102 
57 103 
57 105 
57 107 
57 110 
57 112 
57 114 
57 115 
57 118 
57 120 
57 122 
57 124 
57 125 
57 128 
58 65 
58 67 
58 70 
58 72 
58 74 
58 76 
58 78 
58 80 
58 82 
58 84 
58 86 
58 87 
58 90 
58 91 
58 93 
58 95 
58 98 
58 99 
58 101 
58 104 
58 106 
58 108 
58 109 
58 111 
58 113 
58 116 
58 117 
58 119 
58 121 
58 123 
58 126 
58 127 
59 60 
59 66 
59 67 
59 69 
59 71 
59 73 
59 75 
59 77 
59 79 
59 82 
59 84 
59 86 
59 88 
59 90 
59 92 
59 93 
59 95 
59 97 
59 100 
59 101 
59 104 
59 105 
59 108 
59 110 
59 112 
59 113 
59 116 
59 118 
59 120 
59 121 
59 123 
59 126 
59 127 
60 65 
60 68 
60 70 
60 72 
60 74 
60 76 
60 78 
60 80 
60 81 
60 83 
60 85 
60 87 
60 89 
60 91 
60 94 
60 96 
60 98 
60 99 
60 102 
60 103 
60 106 
60 107 
60 109 
60 111 
60 114 
60 115 
60 117 
60 119 
60 122 
60 124 
60 125 
60 128 
61 62 
61 65 
61 67 
61 70 
61 72 
61 73 
61 75 
61 77 
61 80 
61 81 
61 84 
61 86 
61 87 
61 89 
61 91 
61 93 
61 96 
61 97 
61 100 
61 101 
61 103 
61 106 
61 108 
61 110 
61 112 
61 114 
61 115 
61 118 
61 119 
61 122 
61 124 
61 126 
61 127 
62 66 
62 68 
62 69 
62 71 
62 74 
62 76 
62 78 
62 79 
62 82 
62 83 
62 85 
62 88 
62 90 
62 92 
62 94 
62 95 
62 98 
62 99 
62 102 
62 104 
62 105 
62 107 
62 109 
62 111 
62 113 
62 116 
62 117 
62 120 
62 121 
62 123 
62 125 
62 128 
63 64 
63 65 
63 68 
63 69 
63 72 
63 74 
63 75 
63 78 
63 79 
63 82 
63 84 
63 85 
63 87 
63 89 
63 92 
63 93 
63 96 
63 97 
63 99 
63 102 
63 104 
63 106 
63 107 
63 110 
63 112 
63 114 
63 116 
63 118 
63 119 
63 121 
63 123 
63 125 
63 127 
64 66 
64 67 
64 70 
64 71 
64 73 
64 76 
64 77 
64 80 
64 81 
64 83 
64 86 
64 88 
64 90 
64 91 
64 94 
64 95 
64 98 
64 100 
64 101 
64 103 
64 105 
64 108 
64 109 
64 111 
64 113 
64 115 
64 117 
64 120 
64 122 
64 124 
64 126 
64 128 
65 66 
67 68 
69 70 
71 72 
73 74 
75 76 
77 78 
79 80 
81 82 
83 84 
85 86 
87 88 
89 90 
91 92 
93 94 
95 96 
97 98 
99 100 
101 102 
103 104 
105 106 
107 108 
109 110 
111 112 
113 114 
115 116 
117 118 
119 120 
121 122 
123 124 
125 126 
127 128 
